
List of user-set options:

                                    Name   Value                used
                           compl_inf_tol = 1                     yes
                         constr_viol_tol = 1                     yes
                            dual_inf_tol = 1000                  yes
                           linear_solver = ma97                  yes
                              ma86_small = 1e-30                  no
                                  ma86_u = 0.0001                 no
                              ma97_order = best                  yes
                              ma97_small = 1e-30                 yes
                            ma97_switch1 = at_start              yes
                            ma97_switch2 = od_hd_reuse           yes
                                  ma97_u = 1e-06                 yes
                               ma97_umax = 0.5                   yes
                                max_iter = 1000                  yes
                    max_refinement_steps = 20                    yes
                    min_refinement_steps = 5                     yes
                                 mu_init = 1e-06                 yes
           mu_superlinear_decrease_power = 1.25                  yes
                   nlp_scaling_min_value = 1e-08                 yes
                        option_file_name = Preset_Case_374_pf.opt  yes
                             output_file = ./tmp/Preset_Case_374_pf.output  yes
                      print_user_options = yes                   yes
        required_infeasibility_reduction = 1                      no
                                     tol = 1e-08                 yes
                   warm_start_bound_frac = 1e-20                 yes
                   warm_start_bound_push = 1e-20                 yes
                   warm_start_init_point = yes                   yes
              warm_start_mult_bound_push = 1e-20                 yes
                warm_start_mult_init_max = 1e+40                 yes
             warm_start_slack_bound_frac = 1e-20                 yes
             warm_start_slack_bound_push = 1e-20                 yes

******************************************************************************
This program contains Ipopt, a library for large-scale nonlinear optimization.
 Ipopt is released as open source code under the Eclipse Public License (EPL).
         For more information visit http://projects.coin-or.org/Ipopt
******************************************************************************

This is Ipopt version 3.12.10, running with linear solver ma97.

Number of nonzeros in equality constraint Jacobian...:   123443
Number of nonzeros in inequality constraint Jacobian.:      213
Number of nonzeros in Lagrangian Hessian.............:    49069

Total number of variables............................:    31591
                     variables with only lower bounds:    12912
                variables with lower and upper bounds:    15130
                     variables with only upper bounds:        0
Total number of equality constraints.................:    31483
Total number of inequality constraints...............:       25
        inequality constraints with only lower bounds:        4
   inequality constraints with lower and upper bounds:        0
        inequality constraints with only upper bounds:       21

iter    objective    inf_pr   inf_du lg(mu)  ||d||  lg(rg) alpha_du alpha_pr  ls
   0 -4.9944510e+00 4.04e-03 1.02e+00  -6.0 0.00e+00    -  0.00e+00 0.00e+00   0
   1 -4.9961785e+00 9.07e-01 8.39e+00  -6.0 3.76e+05    -  8.85e-05 3.90e-04h  1
   2 -4.9964431e+00 9.05e-01 4.89e+01  -6.0 9.39e+01  -4.0 2.14e-01 2.35e-03h  1
   3 -4.9970066e+00 9.00e-01 1.18e+02  -6.0 1.25e+01  -4.5 1.49e-01 4.58e-03h  1
   4 -5.0369991e+00 8.38e-01 8.06e+02  -6.0 2.66e+03    -  1.79e-01 7.13e-02h  1
   5 -5.1648460e+00 2.84e+00 6.79e+02  -6.0 2.25e+03    -  2.52e-01 2.41e-01h  1
   6 -5.2779869e+00 3.28e+00 1.15e+03  -6.0 1.37e+03    -  3.95e-01 2.64e-01h  1
   7 -5.2977603e+00 4.51e-02 4.00e+02  -6.0 2.21e+01  -5.0 3.47e-01 1.00e+00h  1
   8 -5.3432074e+00 6.19e+00 3.29e+02  -6.0 4.90e+03    -  2.00e-01 1.21e-01h  1
   9 -5.3735984e+00 1.37e+01 2.39e+02  -6.0 5.77e+03    -  1.49e-01 1.20e-01h  1
iter    objective    inf_pr   inf_du lg(mu)  ||d||  lg(rg) alpha_du alpha_pr  ls
  10 -5.3904804e+00 9.86e-01 9.67e+04  -6.0 4.61e+01  -5.4 1.63e-01 1.00e+00h  1
  11 -5.4055975e+00 1.03e+00 9.55e+04  -6.0 1.18e+02  -5.0 3.82e-02 4.50e-02h  1
  12 -5.4110048e+00 5.98e-01 1.06e+04  -6.0 2.52e+01  -5.5 9.50e-01 1.00e+00h  1
  13 -5.4147603e+00 4.81e-01 9.02e+03  -6.0 5.01e+01  -6.0 2.28e-01 2.07e-01h  1
  14 -5.4218247e+00 4.52e-01 1.32e+05  -6.0 2.19e+03    -  8.42e-02 6.02e-02h  1
  15r-5.4218247e+00 4.52e-01 1.00e+03  -0.7 0.00e+00  -6.4 0.00e+00 5.36e-08R  2
  16r-5.4278395e+00 4.49e-01 1.00e+03  -0.7 1.07e+04    -  1.48e-05 6.13e-06f  1
  17 -5.4266955e+00 3.93e-01 4.84e+05  -6.0 1.44e+00    -  4.26e-01 1.26e-01h  1
  18 -5.4247236e+00 2.95e-01 1.05e+06  -6.0 1.20e+00    -  1.26e-01 2.51e-01h  1
  19 -5.4189029e+00 1.15e-04 7.58e+01  -6.0 8.43e-01    -  7.21e-01 1.00e+00h  1
iter    objective    inf_pr   inf_du lg(mu)  ||d||  lg(rg) alpha_du alpha_pr  ls
  20 -5.4194976e+00 1.26e-04 6.97e+01  -6.0 2.79e+00    -  7.36e-01 4.25e-01h  1
  21 -5.4242836e+00 3.53e-03 2.59e+01  -6.0 9.54e+00    -  7.62e-01 1.00e+00f  1
  22 -5.4308857e+00 8.70e-03 2.02e+01  -6.0 3.23e+01    -  4.84e-01 4.63e-01h  1
  23 -5.4331352e+00 9.12e-03 1.59e+02  -6.0 4.14e+01    -  7.61e-01 3.03e-01f  1
  24 -5.4469602e+00 7.50e-02 4.93e+01  -6.0 1.02e+02    -  8.60e-01 6.27e-01f  1
  25 -5.4715243e+00 1.18e+00 7.01e+01  -6.0 2.84e+02    -  2.65e-01 9.43e-01h  1
  26 -5.4734436e+00 1.11e+00 1.88e+02  -6.0 2.60e+02    -  3.11e-01 5.54e-01h  1
  27 -5.4740623e+00 8.08e-01 1.59e+03  -6.0 2.95e+02    -  2.65e-01 5.52e-01h  1
  28 -5.4777056e+00 9.31e-01 7.65e+02  -6.0 1.87e+03    -  1.02e-01 6.71e-02h  1
  29 -5.4864042e+00 1.75e+00 7.71e+03  -6.0 3.28e+02    -  3.87e-01 1.00e+00h  1
iter    objective    inf_pr   inf_du lg(mu)  ||d||  lg(rg) alpha_du alpha_pr  ls
  30 -5.4880556e+00 1.54e+00 1.22e+04  -6.0 3.05e+02    -  4.56e-01 1.33e-01h  1
  31 -5.4980185e+00 1.29e+00 5.60e+03  -6.0 2.12e+02  -6.9 6.89e-01 1.00e+00h  1
  32 -5.5009728e+00 1.12e+00 1.69e+03  -6.0 5.78e+02  -7.4 1.15e-01 1.56e-01h  1
  33 -5.5176431e+00 1.24e+00 2.92e+04  -6.0 2.10e+02  -7.0 6.30e-01 1.00e+00h  1
  34 -5.5225034e+00 1.10e+00 7.23e+04  -6.0 6.15e+02  -7.4 3.02e-01 1.39e-01h  1
  35 -5.5308955e+00 3.14e+00 6.38e+04  -6.0 9.32e+03  -7.9 2.72e-02 3.12e-02h  1
  36 -5.5498917e+00 1.46e+00 2.15e+05  -6.0 7.16e+02  -8.4 6.22e-01 4.47e-01h  1
  37r-5.5498917e+00 1.46e+00 1.00e+03   0.2 0.00e+00  -8.9 0.00e+00 2.49e-07R  2
  38r-5.5605778e+00 1.46e+00 1.00e+03   0.2 1.95e+04    -  2.97e-06 1.12e-06f  1
  39 -5.5602664e+00 1.42e+00 5.62e+03  -6.0 2.29e+01    -  3.94e-06 2.21e-02h  1
iter    objective    inf_pr   inf_du lg(mu)  ||d||  lg(rg) alpha_du alpha_pr  ls
  40 -5.5586988e+00 1.26e+00 4.99e+03  -6.0 2.22e+01    -  1.75e-01 1.12e-01h  1
  41 -5.5553324e+00 9.24e-01 3.65e+03  -6.0 1.86e+01    -  1.20e-01 2.69e-01h  1
  42 -5.5552757e+00 9.15e-01 3.61e+03  -6.0 1.29e+01    -  1.99e-01 1.06e-02h  1
  43 -5.5498415e+00 3.93e-01 1.56e+03  -6.0 1.24e+01    -  7.05e-01 5.69e-01h  1
  44 -5.5483818e+00 2.35e-01 9.31e+02  -6.0 4.21e+00    -  7.67e-01 4.02e-01h  1
  45 -5.5477179e+00 1.72e-01 6.78e+02  -6.0 1.52e+01    -  8.57e-01 2.71e-01h  1
  46 -5.5461331e+00 7.96e-05 2.50e+00  -6.0 1.06e+00  -3.9 9.68e-01 1.00e+00h  1
  47 -5.5513005e+00 4.22e-01 1.51e+01  -6.0 2.74e+02    -  6.89e-01 2.56e-01h  1
  48 -5.5546867e+00 3.69e-01 1.21e+01  -6.0 2.78e+02    -  1.21e-01 1.58e-01h  1
  49 -5.5588280e+00 5.23e-01 3.21e+04  -6.0 2.32e+02    -  1.35e-03 1.00e+00f  1
iter    objective    inf_pr   inf_du lg(mu)  ||d||  lg(rg) alpha_du alpha_pr  ls
  50 -5.5647925e+00 9.37e-01 3.82e+02  -6.0 1.81e+02    -  8.20e-01 1.00e+00h  1
  51 -5.5650315e+00 3.73e+00 1.89e+02  -6.0 7.74e+02    -  7.82e-01 5.05e-01h  1
  52 -5.5657556e+00 3.66e+00 1.78e+03  -6.0 2.27e+03    -  4.09e-01 3.42e-01H  1
  53 -5.5672858e+00 3.68e+01 4.94e+04  -6.0 1.99e+03    -  1.44e-01 1.00e+00H  1
  54 -5.5673604e+00 2.75e+01 2.86e+04  -6.0 1.33e+03    -  5.30e-01 4.21e-01h  1
  55 -5.5675848e+00 5.91e+01 6.87e+03  -6.0 2.13e+03    -  4.06e-01 7.60e-01h  1
  56 -5.5675753e+00 2.98e+01 3.52e+04  -6.0 3.08e+03    -  9.89e-02 4.60e-01H  1
  57 -5.5673298e+00 1.69e-02 7.26e+03  -6.0 2.79e+00  -4.4 5.71e-01 1.00e+00h  1
  58 -5.5673102e+00 2.31e-05 1.23e-01  -6.0 2.57e-01  -4.9 1.00e+00 1.00e+00h  1
  59 -5.5673127e+00 2.70e-05 4.34e-02  -6.0 3.52e-01  -5.4 1.00e+00 1.00e+00h  1
iter    objective    inf_pr   inf_du lg(mu)  ||d||  lg(rg) alpha_du alpha_pr  ls
  60 -5.5673137e+00 3.42e-05 3.17e-02  -6.0 7.86e-01  -5.8 1.00e+00 1.00e+00h  1
  61 -5.5673123e+00 8.24e-05 1.68e-02  -6.0 1.22e+00  -6.3 1.00e+00 1.00e+00h  1
  62 -5.5673110e+00 1.49e-04 3.34e-02  -6.0 3.23e+00  -6.8 1.00e+00 1.00e+00h  1
  63 -5.5673170e+00 1.42e-03 1.56e-01  -6.0 9.51e+00  -7.3 1.00e+00 1.00e+00h  1
  64 -5.5673511e+00 2.66e-02 1.40e+00  -6.0 4.11e+01  -7.7 1.00e+00 1.00e+00h  1
  65 -5.5673840e+00 5.64e-03 3.26e-01  -6.0 1.89e+01  -7.3 1.00e+00 1.00e+00h  1
  66 -5.5675507e+00 1.80e-01 8.98e+00  -6.0 1.07e+02  -7.8 1.00e+00 1.00e+00h  1
  67 -5.5679705e+00 6.82e-02 1.01e+01  -6.0 6.55e+01  -7.4 4.76e-01 1.00e+00h  1
  68 -5.5684040e+00 2.97e-01 1.93e-01  -6.0 1.70e+00  -4.2 1.00e+00 1.00e+00h  1
  69 -5.5701772e+00 1.92e+00 2.66e+01  -6.0 1.51e+01  -4.7 1.02e-01 2.77e-01h  1
iter    objective    inf_pr   inf_du lg(mu)  ||d||  lg(rg) alpha_du alpha_pr  ls
  70 -5.5714601e+00 1.54e+00 1.12e+02  -6.0 3.59e+00  -4.3 3.34e-01 2.15e-01h  1
  71 -5.5734127e+00 3.89e+00 1.45e+02  -6.0 9.17e+03    -  3.15e-02 4.76e-02h  1
  72 -5.5746199e+00 3.88e+00 1.72e+02  -6.0 5.07e+04    -  2.25e-02 4.99e-03h  1
  73 -5.5760211e+00 2.58e+00 1.75e+02  -6.0 4.24e+00  -4.8 2.90e-01 3.34e-01h  1
  74 -5.5791090e+00 9.24e-02 1.60e+02  -6.0 1.83e+00  -5.2 3.31e-01 1.00e+00h  1
  75 -5.5790641e+00 8.99e-02 1.42e+02  -6.0 5.40e+00  -5.7 4.13e-01 6.25e-02h  5
  76 -5.5781023e+00 5.48e-02 3.78e+01  -6.0 1.14e+01  -6.2 4.21e-01 1.00e+00h  1
  77 -5.5790011e+00 2.10e-02 1.57e-01  -6.0 2.22e+01  -6.7 1.00e+00 1.00e+00h  1
  78 -5.5796488e+00 6.32e-02 3.34e+00  -6.0 6.30e+01  -7.2 8.00e-01 1.00e+00h  1
  79 -5.5816427e+00 4.31e-01 2.58e+00  -6.0 1.64e+02  -7.6 1.00e+00 1.00e+00h  1
iter    objective    inf_pr   inf_du lg(mu)  ||d||  lg(rg) alpha_du alpha_pr  ls
  80 -5.5848498e+00 2.26e+00 5.31e+00  -6.0 5.48e+02  -8.1 1.00e+00 6.52e-01h  1
  81 -5.5883767e+00 8.44e+00 5.05e+01  -6.0 1.44e+04  -8.6 1.33e-01 4.26e-02h  1
  82 -5.5902796e+00 7.37e+00 2.71e+01  -6.0 8.33e+02  -9.1 5.96e-01 1.55e-01h  1
  83 -5.5921613e+00 1.51e+01 2.38e+01  -6.0 9.97e+03    -  3.96e-02 8.73e-02h  1
  84 -5.5933768e+00 1.57e+01 2.26e+01  -6.0 3.90e+03    -  1.32e-01 7.78e-02h  1
  85 -5.5953209e+00 1.41e+01 3.21e+01  -6.0 1.56e+03    -  1.00e+00 1.43e-01h  1
  86 -5.5961956e+00 1.33e+01 3.99e+01  -6.0 1.81e+03    -  4.13e-01 8.80e-02h  1
  87 -5.6044163e+00 1.18e+01 1.19e+02  -6.0 1.15e+03    -  1.00e+00 9.75e-01h  1
  88 -5.6044006e+00 1.17e+01 1.18e+02  -6.0 1.96e+04    -  8.79e-02 6.63e-03h  3
  89 -5.6040189e+00 9.94e+00 9.98e+01  -6.0 1.29e+03    -  1.00e+00 1.55e-01h  1
iter    objective    inf_pr   inf_du lg(mu)  ||d||  lg(rg) alpha_du alpha_pr  ls
  90 -5.6031169e+00 9.70e+00 5.94e+01  -6.0 1.62e+03    -  9.21e-03 3.96e-01h  2
  91 -5.6015270e+00 3.96e-02 2.53e+01  -6.0 5.72e+01  -6.8 7.06e-03 1.00e+00h  1
  92 -5.6015483e+00 4.00e-01 1.77e-01  -6.0 1.50e+02    -  1.00e+00 1.00e+00h  1
  93 -5.6016668e+00 8.63e+00 2.33e+01  -6.0 3.02e+04    -  5.77e-02 2.27e-02h  1
  94 -5.6017558e+00 1.85e+01 2.50e+01  -6.0 1.83e+03    -  1.00e+00 4.91e-01h  2
  95 -5.6017900e+00 2.56e+01 2.42e+01  -6.0 3.08e+03    -  4.32e-01 2.79e-01h  2
  96 -5.6017719e+00 2.65e+01 1.86e+01  -6.0 2.75e+03    -  1.27e-01 2.44e-01h  2
  97 -5.6017048e+00 1.09e-02 5.93e-02  -6.0 4.18e-01  -7.3 1.00e+00 1.00e+00h  1
  98 -5.6016937e+00 2.32e-04 4.68e-01  -6.0 4.17e+01    -  1.00e+00 1.00e+00H  1
  99 -5.6016937e+00 1.65e-06 6.61e-06  -6.0 3.25e-01    -  1.00e+00 1.00e+00h  1
iter    objective    inf_pr   inf_du lg(mu)  ||d||  lg(rg) alpha_du alpha_pr  ls
 100 -5.6020177e+00 6.52e+00 1.07e+02  -7.5 8.31e+02    -  6.01e-01 7.79e-01h  1
 101 -5.6019672e+00 1.76e+00 2.21e+01  -7.5 2.53e+02    -  8.56e-01 8.50e-01h  1
 102 -5.6019518e+00 2.94e-02 3.60e-01  -7.5 3.96e+01    -  1.00e+00 1.00e+00h  1
 103 -5.6019516e+00 9.81e-06 8.10e-05  -7.5 7.97e-01    -  1.00e+00 1.00e+00h  1
 104 -5.6019516e+00 2.85e-10 4.52e-10  -7.5 4.93e-04    -  1.00e+00 1.00e+00h  1
 105 -5.6019534e+00 1.04e-02 8.46e-01  -9.0 3.03e+01    -  9.27e-01 8.35e-01h  1
 106 -5.6019536e+00 4.17e-04 4.85e-03  -9.0 5.05e+00    -  1.00e+00 1.00e+00h  1
 107 -5.6019536e+00 5.57e-10 4.02e-09  -9.0 6.27e-03    -  1.00e+00 1.00e+00h  1

Number of Iterations....: 107

                                   (scaled)                 (unscaled)
Objective...............:  -4.3765262350899388e+00   -5.6019535809151213e+00
Dual infeasibility......:   4.0217972673156235e-09    5.1479005021639985e-09
Constraint violation....:   4.5743074689268023e-10    5.5661075748503208e-10
Complementarity.........:   1.2840140470001280e-09    1.6435379801601639e-09
Overall NLP error.......:   4.0217972673156235e-09    5.1479005021639985e-09


Number of objective function evaluations             = 132
Number of objective gradient evaluations             = 108
Number of equality constraint evaluations            = 132
Number of inequality constraint evaluations          = 132
Number of equality constraint Jacobian evaluations   = 110
Number of inequality constraint Jacobian evaluations = 110
Number of Lagrangian Hessian evaluations             = 107
Total CPU secs in IPOPT (w/o function evaluations)   =    274.178
Total CPU secs in NLP function evaluations           =      4.082

EXIT: Optimal Solution Found.
